
  32    4
  10   10   10   10

   0   0   0   0   0  13 2 5 7 10 23 24 25 26 27 28 29 30 31 
   8   1   0   1   1   4 22 21 15 3 
   9   0   1   3   3   3 18 16 4 
   5   2   2   0   3   4 17 13 12 6 
   4   9   0   3   4   3 20 16 9 
   3   1   4   2   0   2 14 8 
   4   3   3   0   6   2 13 12 
   9   0   4   4   4   1 11 
   4   1   7   0   4   1 15 
   7   0   2   7   2   1 19 
   5  10   2   3   0   1 32
   1   0   5   3   6   1 32
   1   0   5   7   5   1 32
   3   4   0   5   6   1 32
   2   6   2   0   4   1 32
   7   3   0   2   3   1 32
   2   5   0   4   5   1 32
  10   4   0   2   4   1 32
   8   4   3   0   3   1 32
   3   4   5   0   6   1 32
   6   0   6   4   3   1 32
   4   0   6   4   5   1 32
   8   8   0   7   5   1 32
   5   0   4   4   2   1 32
   5   2   6   3   0   1 32
   5   0   3   6   4   1 32
   2   2   0   4   6   1 32
   2   0   4   4   1   1 32
   9   0   4   3   5   1 32
  10   0   8   5   4   1 32
   1   3   2   6   0   1 32
   0   0   0   0   0   0 
